Problem:    
Rows:       248
Columns:    89 (72 integer, 72 binary)
Non-zeros:  820
Status:     INTEGER OPTIMAL
Objective:  value = 18.310592 (MINimum)

   No.   Row name        Activity     Lower bound   Upper bound
------ ------------    ------------- ------------- -------------
     1 r.5                   18.3106             0               
     2 r.6                  -1978.96      -1998.61               
     3 r.7                   2018.31             0               
     4 r.8                  -1993.06      -1994.34               
     5 r.9                   2018.31             0               
     6 r.10                 -1995.86      -1998.42               
     7 r.11                  18.3106             0               
     8 r.12                 -1980.89      -1993.98               
     9 r.13                  2018.31             0               
    10 r.14                 -1991.13      -1997.79               
    11 r.15                  18.3106             0               
    12 r.16                 -1971.68      -1990.79               
    13 r.17                  2018.31             0               
    14 r.18                 -1994.69      -1998.83               
    15 r.19                  18.3106             0               
    16 r.20                 -1962.05      -1994.97               
    17 r.21                  2018.31             0               
    18 r.22                 -1993.34      -1998.94               
    19 r.23                  18.3106             0               
    20 r.24                 -1967.07      -1995.39               
    21 r.25                  2018.31             0               
    22 r.26                  -1984.4       -1997.4               
    23 r.27                  18.3106             0               
    24 r.28                  13.0885      -1991.88               
    25 r.29                  2018.31             0               
    26 r.30                 -1981.69      -1997.29               
    27 r.31                  18.3106             0               
    28 r.32                  18.3106      -1994.78               
    29 r.33                  2018.31             0               
    30 r.34                  -1999.9       -1999.9               
    31 r.35                  18.3106             0               
    32 r.36                 -1996.89      -1996.89               
    33 r.37                        1             1             = 
    34 r.38                        1             1             = 
    35 r.39                        1             1             = 
    36 r.40                        1             1             = 
    37 r.41                        1             1             = 
    38 r.42                        1             1             = 
    39 r.43                        1             1             = 
    40 r.44                        1             1             = 
    41 r.45                  1984.44       1.58053               
    42 r.46                 -1984.44      -1998.61               
    43 r.47                  9.47386       6.02215               
    44 r.48                 -9.47386      -1994.34               
    45 r.49                  1989.17       2.20957               
    46 r.50                 -1989.17      -1998.61               
    47 r.51                  18.6791       9.20527               
    48 r.52                 -18.6791      -1994.34               
    49 r.53                  1985.61        1.1709               
    50 r.54                 -1985.61      -1998.61               
    51 r.55                   28.316       5.02684               
    52 r.56                  -28.316      -1994.34               
    53 r.57                  1986.96       1.05775               
    54 r.58                 -1986.96      -1998.61               
    55 r.59                  23.2892       4.61006               
    56 r.60                 -23.2892      -1994.34               
    57 r.61                 -4.10205      -1994.04               
    58 r.62                  1993.39      -1985.17               
    59 r.63                 -1994.04      -1994.04               
    60 r.64                  3.45171      -1985.17               
    61 r.65                  1998.61       2.71444               
    62 r.66                 -1998.61      -1998.61               
    63 r.67                  8.67382       5.22211               
    64 r.68                 -8.67382      -1994.34               
    65 r.69                  -1980.4      -1997.27               
    66 r.70                 -1990.46      -1991.65               
    67 r.71                  16.5876      -1997.27               
    68 r.72                  6.52617      -1991.65               
    69 r.73                  16.9052       1.38761               
    70 r.74                 -15.5591      -1998.42               
    71 r.75                  1987.83       5.66147               
    72 r.76                 -1990.53      -1993.98               
    73 r.77                  4.72657       2.20957               
    74 r.78                 -4.72657      -1998.42               
    75 r.79                  9.20527       9.20527               
    76 r.80                 -9.20527      -1993.98               
    77 r.81                   1.1709        1.1709               
    78 r.82                  -1.1709      -1998.42               
    79 r.83                  18.8422       5.02684               
    80 r.84                 -18.8422      -1993.98               
    81 r.85                    2.517       1.05775               
    82 r.86                   -2.517      -1998.42               
    83 r.87                  13.8153       4.61006               
    84 r.88                 -13.8153      -1993.98               
    85 r.89                  11.4571       2.60388               
    86 r.90                 -11.4571      -1998.42               
    87 r.91                  1993.98       8.12152               
    88 r.92                 -1993.98      -1993.98               
    89 r.93                 -1985.83      -1990.56               
    90 r.94                  14.1715      -1981.32               
    91 r.95                -0.800039      -1990.56               
    92 r.96                   1999.2      -1981.32               
    93 r.97                 -1995.96      -1997.07               
    94 r.98                 -1980.99      -1991.29               
    95 r.99                  1.02848      -1997.07               
    96 r.100                      16      -1991.29               
    97 r.101                 12.1787       1.38761               
    98 r.102                -10.8326      -1997.79               
    99 r.103                 1978.63       5.66147               
   100 r.104                -1981.32      -1990.79               
   101 r.105                 1995.27       1.58053               
   102 r.106                -1995.27      -1997.79               
   103 r.107                 1990.79       6.02215               
   104 r.108                -1990.79      -1990.79               
   105 r.109                -1996.44      -1996.44               
   106 r.110                -1976.99       -1988.1               
   107 r.111                -29.0872      -1996.44               
   108 r.112                -9.63691       -1988.1               
   109 r.113                 1997.79       1.05775               
   110 r.114                -1997.79      -1997.79               
   111 r.115                 4.61006       4.61006               
   112 r.116                -4.61006      -1990.79               
   113 r.117                  6.7305       2.60388               
   114 r.118                 -6.7305      -1997.79               
   115 r.119                 1984.77       8.12152               
   116 r.120                -1984.77      -1990.79               
   117 r.121                -1990.56      -1990.56               
   118 r.122                 9.44494      -1981.32               
   119 r.123                -10.0053      -1990.56               
   120 r.124                 1989.99      -1981.32               
   121 r.125                -1991.24      -1996.44               
   122 r.126                -1971.78       -1988.1               
   123 r.127                 5.75505      -1996.44               
   124 r.128                 25.2053       -1988.1               
   125 r.129                 15.7343       1.38761               
   126 r.130                -14.3882      -1998.83               
   127 r.131                 1968.99       5.66147               
   128 r.132                -1971.68      -1994.97               
   129 r.133                 1998.83       1.58053               
   130 r.134                -1998.83      -1998.83               
   131 r.135                 1981.16       6.02215               
   132 r.136                -1981.16      -1994.97               
   133 r.137                -1996.44      -1996.44               
   134 r.138                -1976.99       -1988.1               
   135 r.139                -29.0872      -1996.44               
   136 r.140                -9.63691       -1988.1               
   137 r.141                  1.3461       1.05775               
   138 r.142                 -1.3461      -1998.83               
   139 r.143                 1994.97       4.61006               
   140 r.144                -1994.97      -1994.97               
   141 r.145                 10.2862       2.60388               
   142 r.146                -10.2862      -1998.83               
   143 r.147                 1975.14       8.12152               
   144 r.148                -1975.14      -1994.97               
   145 r.149                   -1987      -1990.56               
   146 r.150                 13.0006      -1981.32               
   147 r.151                -19.6422      -1990.56               
   148 r.152                 1980.36      -1981.32               
   149 r.153                -1994.79      -1994.79               
   150 r.154                -1962.15       -1986.9               
   151 r.155                 2.19938      -1994.79               
   152 r.156                 34.8422       -1986.9               
   153 r.157                 14.3882       1.38761               
   154 r.158                -13.0421      -1998.94               
   155 r.159                 1974.02       5.66147               
   156 r.160                -1976.71      -1995.39               
   157 r.161                 1997.48       1.58053               
   158 r.162                -1997.48      -1998.94               
   159 r.163                 1986.18       6.02215               
   160 r.164                -1986.18      -1995.39               
   161 r.165                 2.20957       2.20957               
   162 r.166                -2.20957      -1998.94               
   163 r.167                 1995.39       9.20527               
   164 r.168                -1995.39      -1995.39               
   165 r.169                 1998.65        1.1709               
   166 r.170                -1998.65      -1998.94               
   167 r.171                 5.02684       5.02684               
   168 r.172                -5.02684      -1995.39               
   169 r.173                -1991.06      -1994.04               
   170 r.174                  6.4324      -1985.17               
   171 r.175                -17.3298      -1994.04               
   172 r.176                 1980.16      -1985.17               
   173 r.177                -1988.35      -1990.56               
   174 r.178                 11.6545      -1981.32               
   175 r.179                -14.6154      -1990.56               
   176 r.180                 1985.38      -1981.32               
   177 r.181                -1993.44      -1996.25               
   178 r.182                -1967.17      -1990.01               
   179 r.183                 3.54548      -1996.25               
   180 r.184                 29.8154      -1990.01               
   181 r.185                -4.10205      -1994.04               
   182 r.186                 1993.39      -1985.17               
   183 r.187                -1994.04      -1994.04               
   184 r.188                 3.45171      -1985.17               
   185 r.189                 1988.54       1.58053               
   186 r.190                -1988.54       -1997.4               
   187 r.191                 6.02215       6.02215               
   188 r.192                -6.02215      -1991.88               
   189 r.193                 1993.27       2.20957               
   190 r.194                -1993.27       -1997.4               
   191 r.195                 15.2274       9.20527               
   192 r.196                -15.2274      -1991.88               
   193 r.197                 1989.71        1.1709               
   194 r.198                -1989.71       -1997.4               
   195 r.199                 24.8643       5.02684               
   196 r.200                -24.8643      -1991.88               
   197 r.201                -1991.06      -1994.04               
   198 r.202                  6.4324      -1985.17               
   199 r.203                -17.3298      -1994.04               
   200 r.204                 1980.16      -1985.17               
   201 r.205                 2.71444       2.71444               
   202 r.206                -2.71444       -1997.4               
   203 r.207                 5.22211       5.22211               
   204 r.208                -5.22211      -1991.88               
   205 r.209                 2.73371       1.38761               
   206 r.210                -1.38761      -1997.29               
   207 r.211                 1988.63       5.66147               
   208 r.212                -1991.33      -1994.78               
   209 r.213                -1985.83      -1990.56               
   210 r.214                 14.1715      -1981.32               
   211 r.215               -0.800039      -1990.56               
   212 r.216                  1999.2      -1981.32               
   213 r.217                -1990.56      -1990.56               
   214 r.218                 9.44494      -1981.32               
   215 r.219                -10.0053      -1990.56               
   216 r.220                 1989.99      -1981.32               
   217 r.221                   -1987      -1990.56               
   218 r.222                 13.0006      -1981.32               
   219 r.223                -19.6422      -1990.56               
   220 r.224                 1980.36      -1981.32               
   221 r.225                -1988.35      -1990.56               
   222 r.226                 11.6545      -1981.32               
   223 r.227                -14.6154      -1990.56               
   224 r.228                 1985.38      -1981.32               
   225 r.229                 1997.29       2.60388               
   226 r.230                -1997.29      -1997.29               
   227 r.231                 1994.78       8.12152               
   228 r.232                -1994.78      -1994.78               
   229 r.233                 -1980.4      -1997.27               
   230 r.234                -1990.46      -1991.65               
   231 r.235                 16.5876      -1997.27               
   232 r.236                 6.52617      -1991.65               
   233 r.237                -1995.96      -1997.07               
   234 r.238                -1980.99      -1991.29               
   235 r.239                 1.02848      -1997.07               
   236 r.240                      16      -1991.29               
   237 r.241                -1991.24      -1996.44               
   238 r.242                -1971.78       -1988.1               
   239 r.243                 5.75505      -1996.44               
   240 r.244                 25.2053       -1988.1               
   241 r.245                -1994.79      -1994.79               
   242 r.246                -1962.15       -1986.9               
   243 r.247                 2.19938      -1994.79               
   244 r.248                 34.8422       -1986.9               
   245 r.249                -1993.44      -1996.25               
   246 r.250                -1967.17      -1990.01               
   247 r.251                 3.54548      -1996.25               
   248 r.252                 29.8154      -1990.01               

   No. Column name       Activity     Lower bound   Upper bound
------ ------------    ------------- ------------- -------------
     1 tt                    18.3106             0               
     2 s_1_1        *              0             0             1 
     3 t_1_1                 1998.61             0               
     4 s_1_6        *              1             0             1 
     5 s_2_1        *              1             0             1 
     6 t_2_1                 8.67382             0               
     7 s_2_6        *              0             0             1 
     8 s_1_2        *              1             0             1 
     9 t_1_2                 14.1715             0               
    10 s_1_7        *              1             0             1 
    11 s_2_2        *              0             0             1 
    12 t_2_2                  1999.2             0               
    13 s_2_7        *              0             0             1 
    14 s_1_3        *              1             0             1 
    15 t_1_3                 9.44494             0               
    16 s_2_3        *              0             0             1 
    17 t_2_3                 1989.99             0               
    18 s_1_4        *              1             0             1 
    19 t_1_4                 13.0006             0               
    20 s_2_4        *              0             0             1 
    21 t_2_4                 1980.36             0               
    22 s_1_5        *              1             0             1 
    23 t_1_5                 11.6545             0               
    24 s_2_5        *              0             0             1 
    25 t_2_5                 1985.38             0               
    26 t_1_6                 2.71444             0               
    27 t_2_6                 5.22211             0               
    28 t_1_7                       0             0               
    29 t_2_7                       0             0               
    30 s_1_8        *              1             0             1 
    31 t_1_8                 18.2098             0               
    32 s_2_8        *              0             0             1 
    33 t_2_8                  2015.2             0               
    34 u_1_1_2      *              0             0             1 
    35 u_2_1_2      *              1             0             1 
    36 u_1_1_3      *              0             0             1 
    37 u_2_1_3      *              1             0             1 
    38 u_1_1_4      *              0             0             1 
    39 u_2_1_4      *              1             0             1 
    40 u_1_1_5      *              0             0             1 
    41 u_2_1_5      *              1             0             1 
    42 u_1_1_7      *              0             0             1 
    43 u_2_1_7      *              0             0             1 
    44 u_1_2_1      *              1             0             1 
    45 u_2_2_1      *              0             0             1 
    46 u_1_2_3      *              0             0             1 
    47 u_2_2_3      *              0             0             1 
    48 u_1_2_4      *              0             0             1 
    49 u_2_2_4      *              0             0             1 
    50 u_1_2_5      *              0             0             1 
    51 u_2_2_5      *              0             0             1 
    52 u_1_2_6      *              0             0             1 
    53 u_2_2_6      *              0             0             1 
    54 u_1_3_1      *              1             0             1 
    55 u_2_3_1      *              0             0             1 
    56 u_1_3_2      *              1             0             1 
    57 u_2_3_2      *              1             0             1 
    58 u_1_3_5      *              1             0             1 
    59 u_2_3_5      *              0             0             1 
    60 u_1_3_6      *              0             0             1 
    61 u_2_3_6      *              0             0             1 
    62 u_1_4_1      *              1             0             1 
    63 u_2_4_1      *              0             0             1 
    64 u_1_4_2      *              1             0             1 
    65 u_2_4_2      *              1             0             1 
    66 u_1_4_5      *              0             0             1 
    67 u_2_4_5      *              1             0             1 
    68 u_1_4_6      *              0             0             1 
    69 u_2_4_6      *              0             0             1 
    70 u_1_5_1      *              1             0             1 
    71 u_2_5_1      *              0             0             1 
    72 u_1_5_2      *              1             0             1 
    73 u_2_5_2      *              1             0             1 
    74 u_1_5_3      *              0             0             1 
    75 u_2_5_3      *              1             0             1 
    76 u_1_5_4      *              1             0             1 
    77 u_2_5_4      *              0             0             1 
    78 u_1_6_2      *              1             0             1 
    79 u_2_6_2      *              1             0             1 
    80 u_1_6_3      *              1             0             1 
    81 u_2_6_3      *              1             0             1 
    82 u_1_6_4      *              1             0             1 
    83 u_2_6_4      *              1             0             1 
    84 u_1_6_7      *              0             0             1 
    85 u_2_6_7      *              0             0             1 
    86 u_1_7_1      *              1             0             1 
    87 u_2_7_1      *              1             0             1 
    88 u_1_7_6      *              1             0             1 
    89 u_2_7_6      *              1             0             1 

Integer feasibility conditions:

KKT.PE: max.abs.err = 2.27e-13 on row 14
        max.rel.err = 5.62e-17 on row 14
        High quality

KKT.PB: max.abs.err = 2.27e-13 on row 140
        max.rel.err = 2.14e-14 on row 167
        High quality

End of output
